
  32    4
  10   10   10   10

   0   0   0   0   0   2 2 4 
   9  10  10  10  10   1 3 
   5  10  10  10  10   3 9 6 5 
   9  10  10  10  10   2 9 5 
   1  10  10  10  10   1 7 
   1  10  10  10  10   1 7 
   9  10  10  10  10   2 10 8 
   2  10  10  10  10   4 15 14 12 11 
   3  10  10  10  10   1 10 
   9  10  10  10  10   3 15 14 11 
   5  10  10  10  10   1 13 
   7  10  10  10  10   1 13 
   4  10  10  10  10   2 17 16 
   5  10  10  10  10   2 17 16 
   3  10  10  10  10   1 16 
  10  10  10  10  10   3 21 20 18 
  10  10  10  10  10   2 21 18 
   3  10  10  10  10   1 19 
   5  10  10  10  10   2 23 22 
   4  10  10  10  10   2 23 22 
   4  10  10  10  10   1 22 
   1  10  10  10  10   2 29 24 
   3  10  10  10  10   4 29 28 27 26 
  10  10  10  10  10   2 26 25 
   3  10  10  10  10   3 31 28 27 
   6  10  10  10  10   2 31 30 
  10  10  10  10  10   1 30 
   8  10  10  10  10   1 30 
   9  10  10  10  10   1 30 
  10  10  10  10  10   1 32
  10  10  10  10  10   1 32
   0   0   0   0   0   0 
